c CNF-Signature XOR_4
c 
c $p 4 1
c $m (1,2,3,4,5)
c $u 1
c $u 2
c $u 3
c $u 4
c $u 5
p cnf 5 16
1 2 3 4 -5 0
-1 2 3 4 5 0
1 -2 3 4 5 0
-1 -2 3 4 -5 0
1 2 -3 4 5 0
-1 2 -3 4 -5 0
1 -2 -3 4 -5 0
-1 -2 -3 4 5 0
1 2 3 -4 5 0
-1 2 3 -4 -5 0
1 -2 3 -4 -5 0
-1 -2 3 -4 5 0
1 2 -3 -4 -5 0
-1 2 -3 -4 5 0
1 -2 -3 -4 5 0
-1 -2 -3 -4 -5 0
